c FILE /home/rafael/Documents/HappySet/MIHS/inputs/happygen/output/graph_d_regular_k10_p0.1_v100_20241127_084108.txt
c SOURCE This is a d-regular graph formed for the happy graph colouring problem.
c DESCRIPTION It was generated using the problem generator of Rhyd Lewis
c
c GRAPH STATS
c Seed                             = -1136615692
c Number of Nodes                  = 100
c Number of colours k              = 10
c Number of pre-assignments        = 10
c Degree of all vertices           = 6
c Density                          = 0.0606061
c 
c The degrees of nodes 1 to 100, respectively, are as follows 
c [6, 6, 6, 6, 6, 6, 6, 6, 6, 6, 6, 6, 6, 6, 6, 6, 6, 6, 6, 6, 6, 6, 6, 6, 6, 6, 
c  6, 6, 6, 6, 6, 6, 6, 6, 6, 6, 6, 6, 6, 6, 6, 6, 6, 6, 6, 6, 6, 6, 6, 6, 6, 
c  6, 6, 6, 6, 6, 6, 6, 6, 6, 6, 6, 6, 6, 6, 6, 6, 6, 6, 6, 6, 6, 6, 6, 6, 6, 
c  6, 6, 6, 6, 6, 6, 6, 6, 6, 6, 6, 6, 6, 6, 6, 6, 6, 6, 6, 6, 6, 6, 6, 6] 
c  
p edge 100 300 10
e 1 9
e 1 14
e 1 17
e 1 25
e 1 67
e 1 94
e 2 37
e 2 39
e 2 51
e 2 62
e 2 91
e 2 92
e 3 24
e 3 28
e 3 38
e 3 58
e 3 76
e 3 90
e 4 40
e 4 46
e 4 48
e 4 49
e 4 69
e 4 76
e 5 15
e 5 27
e 5 46
e 5 50
e 5 87
e 5 98
e 6 47
e 6 50
e 6 51
e 6 64
e 6 82
e 6 97
e 7 35
e 7 63
e 7 69
e 7 84
e 7 90
e 7 92
e 8 26
e 8 37
e 8 53
e 8 77
e 8 86
e 8 92
e 9 31
e 9 79
e 9 88
e 9 98
e 9 99
e 10 28
e 10 41
e 10 52
e 10 54
e 10 59
e 10 89
e 11 15
e 11 16
e 11 54
e 11 72
e 11 78
e 11 100
e 12 14
e 12 29
e 12 37
e 12 42
e 12 65
e 12 84
e 13 28
e 13 41
e 13 54
e 13 65
e 13 93
e 13 98
e 14 33
e 14 34
e 14 52
e 14 90
e 15 51
e 15 60
e 15 85
e 15 93
e 16 18
e 16 31
e 16 50
e 16 70
e 16 72
e 17 23
e 17 45
e 17 62
e 17 74
e 17 76
e 18 24
e 18 64
e 18 67
e 18 74
e 18 95
e 19 21
e 19 30
e 19 38
e 19 69
e 19 78
e 19 80
e 20 71
e 20 75
e 20 83
e 20 85
e 20 87
e 20 91
e 21 24
e 21 35
e 21 64
e 21 82
e 21 88
e 22 25
e 22 57
e 22 58
e 22 79
e 22 89
e 22 96
e 23 30
e 23 47
e 23 49
e 23 83
e 23 85
e 24 31
e 24 63
e 24 66
e 25 49
e 25 74
e 25 83
e 25 92
e 26 55
e 26 62
e 26 80
e 26 86
e 26 100
e 27 33
e 27 35
e 27 47
e 27 67
e 27 70
e 28 43
e 28 66
e 28 94
e 29 39
e 29 41
e 29 60
e 29 71
e 29 94
e 30 61
e 30 69
e 30 75
e 30 82
e 31 42
e 31 54
e 31 86
e 32 40
e 32 52
e 32 53
e 32 79
e 32 80
e 32 85
e 33 48
e 33 72
e 33 76
e 33 88
e 34 37
e 34 47
e 34 63
e 34 73
e 34 98
e 35 41
e 35 68
e 35 78
e 36 40
e 36 43
e 36 64
e 36 87
e 36 98
e 36 100
e 37 65
e 37 78
e 38 49
e 38 74
e 38 83
e 38 92
e 39 44
e 39 60
e 39 84
e 39 95
e 40 49
e 40 57
e 40 71
e 41 46
e 41 81
e 42 43
e 42 47
e 42 61
e 42 73
e 43 73
e 43 80
e 43 97
e 44 56
e 44 59
e 44 70
e 44 89
e 44 94
e 45 51
e 45 58
e 45 66
e 45 75
e 45 95
e 46 87
e 46 90
e 46 93
e 47 62
e 48 65
e 48 71
e 48 94
e 48 98
e 49 55
e 50 87
e 50 89
e 50 94
e 51 75
e 51 96
e 52 73
e 52 75
e 52 100
e 53 56
e 53 78
e 53 83
e 53 93
e 54 68
e 54 74
e 55 63
e 55 70
e 55 73
e 55 77
e 56 57
e 56 68
e 56 87
e 56 88
e 57 67
e 57 74
e 57 99
e 58 82
e 58 92
e 58 100
e 59 61
e 59 68
e 59 81
e 59 97
e 60 65
e 60 68
e 60 81
e 61 63
e 61 85
e 61 99
e 62 81
e 62 97
e 63 69
e 64 65
e 64 84
e 66 67
e 66 96
e 66 97
e 67 89
e 68 72
e 69 79
e 70 81
e 70 86
e 71 84
e 71 88
e 72 79
e 72 95
e 73 82
e 75 93
e 76 83
e 76 96
e 77 79
e 77 86
e 77 89
e 77 99
e 78 99
e 80 82
e 80 91
e 81 91
e 84 90
e 85 86
e 88 96
e 90 95
e 91 96
e 91 100
e 93 99
e 95 97
n 11 7
n 17 3
n 20 4
n 37 9
n 43 2
n 44 1
n 49 6
n 68 10
n 69 8
n 92 5
